c colouring generated by benchmark framework
p edge 121 1980
v 1 4
v 2 5
v 3 6
v 4 7
v 5 11
v 6 0
v 7 2
v 8 12
v 9 10
v 10 8
v 11 13
v 12 6
v 13 9
v 14 0
v 15 1
v 16 12
v 17 8
v 18 5
v 19 13
v 20 4
v 21 2
v 22 3
v 23 0
v 24 2
v 25 7
v 26 13
v 27 9
v 28 3
v 29 12
v 30 6
v 31 5
v 32 10
v 33 4
v 34 5
v 35 12
v 36 3
v 37 11
v 38 2
v 39 4
v 40 0
v 41 9
v 42 1
v 43 7
v 44 6
v 45 10
v 46 8
v 47 5
v 48 4
v 49 0
v 50 1
v 51 3
v 52 2
v 53 6
v 54 9
v 55 12
v 56 7
v 57 3
v 58 1
v 59 9
v 60 10
v 61 6
v 62 8
v 63 0
v 64 11
v 65 4
v 66 2
v 67 13
v 68 0
v 69 2
v 70 3
v 71 1
v 72 9
v 73 10
v 74 4
v 75 8
v 76 6
v 77 7
v 78 9
v 79 6
v 80 13
v 81 0
v 82 4
v 83 2
v 84 1
v 85 3
v 86 12
v 87 11
v 88 8
v 89 1
v 90 7
v 91 4
v 92 6
v 93 8
v 94 13
v 95 11
v 96 5
v 97 2
v 98 3
v 99 10
v 100 2
v 101 10
v 102 11
v 103 12
v 104 3
v 105 5
v 106 7
v 107 8
v 108 0
v 109 13
v 110 9
v 111 8
v 112 13
v 113 9
v 114 2
v 115 7
v 116 10
v 117 4
v 118 11
v 119 3
v 120 12
v 121 1
